c This Formular was created for testing purposes
c
c    horn? no
c    forced? no
c    mixed sat? no
c    clause length = 3
c
p cnf
-3	11	14
6	2	12
13	7	3
4	14	1
9	5	15
16	20	6
-56	-11	10
-15	8	18
19	-1	17
10	20	13
29	-40	24
21	32	-37
28	-34	-54
31	6	22
26	-39	16
15	23	-60
-36	21	9
-58	-38	27
25	-35	31
-55	14	30
41	-53	6
10	42	8
46	4	21
31	12	48
16	50	13
-20	-33	44
45	52	-59
32	51	17
49	-57	21
13	43	47
70	64	-76
68	10	4
61	71	13
65	-73	-78
69	72	24
63	16	-80
-74	-75	15
62	67	23
77	31	27
66	17	-79
%
0
